(set-logic ALL)
(set-option :produce-models true)
(declare-sort BoundSet 0)
(declare-sort UnboundSet 0)
(declare-fun IsTeacher (BoundSet) Bool)
(declare-fun IsFlat (BoundSet) Bool)
(assert (not (=> (exists ((b BoundSet)) (exists ((a BoundSet)) (and (IsTeacher b) (IsFlat a)))) (exists ((a BoundSet)) (IsFlat a)))))
(check-sat)
(get-model)